NAME : ulysses16.tsp.6859.tour
COMMENT : Length = 6859
COMMENT : Found by LKH-3 [Keld Helsgaun] Sat Jan 10 17:14:25 2026
TYPE : TOUR
DIMENSION : 16
TOUR_SECTION
1
8
4
2
3
16
10
9
11
5
15
6
7
12
13
14
-1
EOF
